Version identifier: 20.1.0.0 | 2020-11-10 | 9bedb6d68
CPXPARAM_Threads                                 1
CPXPARAM_TimeLimit                               7200
CPXPARAM_MIP_Tolerances_MIPGap                   0
Generic callback                                 0x60
1 of 1 MIP starts provided solutions.
MIP start 'm1' defined initial solution with objective 1306.0886.
Tried aggregator 1 time.
Reduced MIP has 800801 rows, 801001 columns, and 2401000 nonzeros.
Reduced MIP has 1000 binaries, 0 generals, 0 SOSs, and 0 indicators.
Presolve time = 0.84 sec. (759.66 ticks)
Probing time = 0.10 sec. (100.05 ticks)
Tried aggregator 1 time.
Reduced MIP has 800801 rows, 801001 columns, and 2401000 nonzeros.
Reduced MIP has 1000 binaries, 0 generals, 0 SOSs, and 0 indicators.
Presolve time = 0.80 sec. (746.68 ticks)
Probing time = 0.10 sec. (100.05 ticks)
MIP emphasis: balance optimality and feasibility.
MIP search method: dynamic search.
Parallel mode: none, using 1 thread.
Root relaxation solution time = 0.26 sec. (308.31 ticks)

        Nodes                                         Cuts/
   Node  Left     Objective  IInf  Best Integer    Best Bound    ItCnt     Gap

*     0+    0                         1306.0886     4368.0000           234.43%
      0     0     1308.4375    20     1306.0886     4368.0000        0  234.43%
      0     2     1308.4375    20     1306.0886     1308.4375        0    0.18%
Elapsed time = 1022.43 sec. (949330.61 ticks, tree = 0.01 MB, solutions = 1)
      1     3     1307.8208    16     1306.0886     1308.4374     6636    0.18%
*     2     0      integral     0     1308.2176     1308.2176     7143    0.00%

User cuts applied:  6

Root node processing (before b&c):
  Real time             = 1022.30 sec. (949195.39 ticks)
Sequential b&c:
  Real time             =  160.17 sec. (91665.16 ticks)
                          ------------
Total (root+branch&cut) = 1182.48 sec. (1040860.55 ticks)
@Parameters: 
is_S_cut                                true
is_add_all_yinF                         true
is_start_value                          true
is_usercut                              true
is_visualization                        false
uc_only_rootnode                        false

data                                    Qi
fn                                      data/Qi/instance_800_1000.csv
mode                                    ZLP
solver                                  cplex

p                                       5
r                                       50

EPS                                     1.0e-06
EPS_vio                                 1.0e-04
beta                                    0.10
gap                                     0.00
nodelimit                               Inf
timelimit                               7200.00


@PrintInfos
ItCnt: 7143
Current gap: 0.00 %
Termination Status: OPTIMAL
Primal Status: FEASIBLE_POINT
Solve Time: 1182.48 sec
Objective Value: 1308.217550
Number of Nodes:      3

CutInfo: [phase] num / time (sec) 
ZLP             [phase1]     0 / 0.00 [rLC]     4 / 9.07 [rUC]     2 / 4.09 [sLC]     1 / 2.38 [sUC]     3 / 9.21 
OldSubmodular   [phase1]     0 / 0.00 [rLC]     0 / 0.00 [rUC]     0 / 0.00 [sLC]     0 / 0.00 [sUC]     0 / 0.00 
NewSubmodular   [phase1]     0 / 0.00 [rLC]     0 / 0.00 [rUC]     0 / 0.00 [sLC]     0 / 0.00 [sUC]     0 / 0.00 
PMP             [phase1]     0 / 0.00 [rLC]     5 / 3.06 [rUC]     2 / 1.20 [sLC]     2 / 1.12 [sUC]     5 / 2.67 
Separation Round: [phase1] 0  [rLC] 5  [rUC] 2  [sLC] 2  [sUC] 5
Root Best Bound 1308.217550
Root Best Integer: 1308.217550
Best Bound: 1308.217550
Best Integer: 1308.217550

